c nIsolatedPIs 0
c maxPI 32
p cnf 188 469
c gate 33 -7 23 0
-7 -33 0
23 -33 0
7 -23 33 0
c gate 34 6 -22 0
6 -34 0
-22 -34 0
-6 22 34 0
c gate 35 7 -23 0
7 -35 0
-23 -35 0
-7 23 35 0
c gate 36 -34 -35 0
-34 -36 0
-35 -36 0
34 35 36 0
c gate 37 -2 18 0
-2 -37 0
18 -37 0
2 -18 37 0
c gate 38 -1 17 0
-1 -38 0
17 -38 0
1 -17 38 0
c gate 39 -37 -38 0
-37 -39 0
-38 -39 0
37 38 39 0
c gate 40 2 -18 0
2 -40 0
-18 -40 0
-2 18 40 0
c gate 41 3 -19 0
3 -41 0
-19 -41 0
-3 19 41 0
c gate 42 -40 -41 0
-40 -42 0
-41 -42 0
40 41 42 0
c gate 43 -39 42 0
-39 -43 0
42 -43 0
39 -42 43 0
c gate 44 -4 20 0
-4 -44 0
20 -44 0
4 -20 44 0
c gate 45 -3 19 0
-3 -45 0
19 -45 0
3 -19 45 0
c gate 46 -44 -45 0
-44 -46 0
-45 -46 0
44 45 46 0
c gate 47 -43 46 0
-43 -47 0
46 -47 0
43 -46 47 0
c gate 48 5 -21 0
5 -48 0
-21 -48 0
-5 21 48 0
c gate 49 4 -20 0
4 -49 0
-20 -49 0
-4 20 49 0
c gate 50 -48 -49 0
-48 -50 0
-49 -50 0
48 49 50 0
c gate 51 -47 50 0
-47 -51 0
50 -51 0
47 -50 51 0
c gate 52 -6 22 0
-6 -52 0
22 -52 0
6 -22 52 0
c gate 53 -34 -52 0
-34 -53 0
-52 -53 0
34 52 53 0
c gate 54 -5 21 0
-5 -54 0
21 -54 0
5 -21 54 0
c gate 55 53 -54 0
53 -55 0
-54 -55 0
-53 54 55 0
c gate 56 -51 55 0
-51 -56 0
55 -56 0
51 -55 56 0
c gate 57 36 -56 0
36 -57 0
-56 -57 0
-36 56 57 0
c gate 58 -33 -57 0
-33 -58 0
-57 -58 0
33 57 58 0
c gate 59 8 24 0
8 -59 0
24 -59 0
-8 -24 59 0
c gate 60 -8 -24 0
-8 -60 0
-24 -60 0
8 24 60 0
c gate 61 -59 -60 0
-59 -61 0
-60 -61 0
59 60 61 0
c gate 62 58 -61 0
58 -62 0
-61 -62 0
-58 61 62 0
c gate 63 -33 -35 0
-33 -63 0
-35 -63 0
33 35 63 0
c gate 64 56 -63 0
56 -64 0
-63 -64 0
-56 63 64 0
c gate 65 2 18 0
2 -65 0
18 -65 0
-2 -18 65 0
c gate 66 1 17 0
1 -66 0
17 -66 0
-1 -17 66 0
c gate 67 -65 -66 0
-65 -67 0
-66 -67 0
65 66 67 0
c gate 68 -2 -18 0
-2 -68 0
-18 -68 0
2 18 68 0
c gate 69 -3 -19 0
-3 -69 0
-19 -69 0
3 19 69 0
c gate 70 -68 -69 0
-68 -70 0
-69 -70 0
68 69 70 0
c gate 71 -67 70 0
-67 -71 0
70 -71 0
67 -70 71 0
c gate 72 4 20 0
4 -72 0
20 -72 0
-4 -20 72 0
c gate 73 3 19 0
3 -73 0
19 -73 0
-3 -19 73 0
c gate 74 -72 -73 0
-72 -74 0
-73 -74 0
72 73 74 0
c gate 75 -71 74 0
-71 -75 0
74 -75 0
71 -74 75 0
c gate 76 -5 -21 0
-5 -76 0
-21 -76 0
5 21 76 0
c gate 77 -4 -20 0
-4 -77 0
-20 -77 0
4 20 77 0
c gate 78 -76 -77 0
-76 -78 0
-77 -78 0
76 77 78 0
c gate 79 -75 78 0
-75 -79 0
78 -79 0
75 -78 79 0
c gate 80 5 21 0
5 -80 0
21 -80 0
-5 -21 80 0
c gate 81 -53 -80 0
-53 -81 0
-80 -81 0
53 80 81 0
c gate 82 -79 81 0
-79 -82 0
81 -82 0
79 -81 82 0
c gate 83 -6 -22 0
-6 -83 0
-22 -83 0
6 22 83 0
c gate 84 -82 -83 0
-82 -84 0
-83 -84 0
82 83 84 0
c gate 85 -63 -84 0
-63 -85 0
-84 -85 0
63 84 85 0
c gate 86 61 85 0
61 -86 0
85 -86 0
-61 -85 86 0
c gate 87 11 27 0
11 -87 0
27 -87 0
-11 -27 87 0
c gate 88 -7 -23 0
-7 -88 0
-23 -88 0
7 23 88 0
c gate 89 -59 88 0
-59 -89 0
88 -89 0
59 -88 89 0
c gate 90 -9 -25 0
-9 -90 0
-25 -90 0
9 25 90 0
c gate 91 -60 -90 0
-60 -91 0
-90 -91 0
60 90 91 0
c gate 92 -89 91 0
-89 -92 0
91 -92 0
89 -91 92 0
c gate 93 9 25 0
9 -93 0
25 -93 0
-9 -25 93 0
c gate 94 10 26 0
10 -94 0
26 -94 0
-10 -26 94 0
c gate 95 -93 -94 0
-93 -95 0
-94 -95 0
93 94 95 0
c gate 96 -92 95 0
-92 -96 0
95 -96 0
92 -95 96 0
c gate 97 -11 -27 0
-11 -97 0
-27 -97 0
11 27 97 0
c gate 98 -10 -26 0
-10 -98 0
-26 -98 0
10 26 98 0
c gate 99 -97 -98 0
-97 -99 0
-98 -99 0
97 98 99 0
c gate 100 -96 99 0
-96 -100 0
99 -100 0
96 -99 100 0
c gate 101 -87 -100 0
-87 -101 0
-100 -101 0
87 100 101 0
c gate 102 -12 -28 0
-12 -102 0
-28 -102 0
12 28 102 0
c gate 103 12 28 0
12 -103 0
28 -103 0
-12 -28 103 0
c gate 104 -102 -103 0
-102 -104 0
-103 -104 0
102 103 104 0
c gate 105 -86 92 0
-86 -105 0
92 -105 0
86 -92 105 0
c gate 106 -93 -105 0
-93 -106 0
-105 -106 0
93 105 106 0
c gate 107 -98 -106 0
-98 -107 0
-106 -107 0
98 106 107 0
c gate 108 -87 -94 0
-87 -108 0
-94 -108 0
87 94 108 0
c gate 109 -107 108 0
-107 -109 0
108 -109 0
107 -108 109 0
c gate 110 -97 -109 0
-97 -110 0
-109 -110 0
97 109 110 0
c gate 111 -104 110 0
-104 -111 0
110 -111 0
104 -110 111 0
c gate 112 101 -111 0
101 -112 0
-111 -112 0
-101 111 112 0
c gate 113 104 -110 0
104 -113 0
-110 -113 0
-104 110 113 0
c gate 114 -101 -113 0
-101 -114 0
-113 -114 0
101 113 114 0
c gate 115 -112 -114 0
-112 -115 0
-114 -115 0
112 114 115 0
c gate 116 86 115 0
86 -116 0
115 -116 0
-86 -115 116 0
c gate 117 104 110 0
104 -117 0
110 -117 0
-104 -110 117 0
c gate 118 -14 -30 0
-14 -118 0
-30 -118 0
14 30 118 0
c gate 119 14 30 0
14 -119 0
30 -119 0
-14 -30 119 0
c gate 120 -118 -119 0
-118 -120 0
-119 -120 0
118 119 120 0
c gate 121 -102 120 0
-102 -121 0
120 -121 0
102 -120 121 0
c gate 122 13 -29 0
13 -122 0
-29 -122 0
-13 29 122 0
c gate 123 -13 29 0
-13 -123 0
29 -123 0
13 -29 123 0
c gate 124 -122 -123 0
-122 -124 0
-123 -124 0
122 123 124 0
c gate 125 -16 -32 0
-16 -125 0
-32 -125 0
16 32 125 0
c gate 126 16 32 0
16 -126 0
32 -126 0
-16 -32 126 0
c gate 127 -125 -126 0
-125 -127 0
-126 -127 0
125 126 127 0
c gate 128 -15 -31 0
-15 -128 0
-31 -128 0
15 31 128 0
c gate 129 15 31 0
15 -129 0
31 -129 0
-15 -31 129 0
c gate 130 -128 -129 0
-128 -130 0
-129 -130 0
128 129 130 0
c gate 131 127 130 0
127 -131 0
130 -131 0
-127 -130 131 0
c gate 132 -124 131 0
-124 -132 0
131 -132 0
124 -131 132 0
c gate 133 121 132 0
121 -133 0
132 -133 0
-121 -132 133 0
c gate 134 117 -133 0
117 -134 0
-133 -134 0
-117 133 134 0
c gate 135 -116 -134 0
-116 -135 0
-134 -135 0
116 134 135 0
c gate 136 -87 -97 0
-87 -136 0
-97 -136 0
87 97 136 0
c gate 137 10 -26 0
10 -137 0
-26 -137 0
-10 26 137 0
c gate 138 8 -24 0
8 -138 0
-24 -138 0
-8 24 138 0
c gate 139 -90 -93 0
-90 -139 0
-93 -139 0
90 93 139 0
c gate 140 -138 -139 0
-138 -140 0
-139 -140 0
138 139 140 0
c gate 141 -10 26 0
-10 -141 0
26 -141 0
10 -26 141 0
c gate 142 -9 25 0
-9 -142 0
25 -142 0
9 -25 142 0
c gate 143 -141 -142 0
-141 -143 0
-142 -143 0
141 142 143 0
c gate 144 -140 143 0
-140 -144 0
143 -144 0
140 -143 144 0
c gate 145 -137 -144 0
-137 -145 0
-144 -145 0
137 144 145 0
c gate 146 62 143 0
62 -146 0
143 -146 0
-62 -143 146 0
c gate 147 145 -146 0
145 -147 0
-146 -147 0
-145 146 147 0
c gate 148 -136 147 0
-136 -148 0
147 -148 0
136 -147 148 0
c gate 149 136 -147 0
136 -149 0
-147 -149 0
-136 147 149 0
c gate 150 -148 -149 0
-148 -150 0
-149 -150 0
148 149 150 0
c gate 151 145 -150 0
145 -151 0
-150 -151 0
-145 150 151 0
c gate 152 -103 133 0
-103 -152 0
133 -152 0
103 -133 152 0
c gate 153 110 152 0
110 -153 0
152 -153 0
-110 -152 153 0
c gate 154 -56 -153 0
-56 -154 0
-153 -154 0
56 153 154 0
c gate 155 -135 154 0
-135 -155 0
154 -155 0
135 -154 155 0
c gate 156 -64 -155 0
-64 -156 0
-155 -156 0
64 155 156 0
c gate 157 -62 -156 0
-62 -157 0
-156 -157 0
62 156 157 0
c gate 158 36 61 0
36 -158 0
61 -158 0
-36 -61 158 0
c gate 159 58 158 0
58 -159 0
158 -159 0
-58 -158 159 0
c gate 160 -62 -159 0
-62 -160 0
-159 -160 0
62 159 160 0
c gate 161 -94 -98 0
-94 -161 0
-98 -161 0
94 98 161 0
c gate 162 -139 -161 0
-139 -162 0
-161 -162 0
139 161 162 0
c gate 163 -159 162 0
-159 -163 0
162 -163 0
159 -162 163 0
c gate 164 -160 -163 0
-160 -164 0
-163 -164 0
160 163 164 0
c gate 165 -157 -164 0
-157 -165 0
-164 -165 0
157 164 165 0
c gate 166 -151 165 0
-151 -166 0
165 -166 0
151 -165 166 0
c gate 167 -148 -166 0
-148 -167 0
-166 -167 0
148 166 167 0
c gate 168 -104 -120 0
-104 -168 0
-120 -168 0
104 120 168 0
c gate 169 -127 -130 0
-127 -169 0
-130 -169 0
127 130 169 0
c gate 170 124 169 0
124 -170 0
169 -170 0
-124 -169 170 0
c gate 171 168 170 0
168 -171 0
170 -171 0
-168 -170 171 0
c gate 172 148 171 0
148 -172 0
171 -172 0
-148 -171 172 0
c gate 173 -167 -172 0
-167 -173 0
-172 -173 0
167 172 173 0
c gate 174 -135 173 0
-135 -174 0
173 -174 0
135 -173 174 0
c gate 175 -82 -85 0
-82 -175 0
-85 -175 0
82 85 175 0
c gate 176 -115 -175 0
-115 -176 0
-175 -176 0
115 175 176 0
c gate 177 -117 -176 0
-117 -177 0
-176 -177 0
117 176 177 0
c gate 178 -134 -177 0
-134 -178 0
-177 -178 0
134 177 178 0
c gate 179 -173 178 0
-173 -179 0
178 -179 0
173 -178 179 0
c gate 180 -174 -179 0
-174 -180 0
-179 -180 0
174 179 180 0
c gate 181 -56 180 0
-56 -181 0
180 -181 0
56 -180 181 0
c gate 182 -64 -181 0
-64 -182 0
-181 -182 0
64 181 182 0
c gate 183 -62 -182 0
-62 -183 0
-182 -183 0
62 182 183 0
c gate 184 -164 -173 0
-164 -184 0
-173 -184 0
164 173 184 0
c gate 185 -183 184 0
-183 -185 0
184 -185 0
183 -184 185 0
c gate 186 -165 173 0
-165 -186 0
173 -186 0
165 -173 186 0
c gate 187 151 -186 0
151 -187 0
-186 -187 0
-151 186 187 0
c gate 188 -185 187 0
-185 -188 0
187 -188 0
185 -187 188 0
c PO
188 0
